c Result of efficient AIG-to-CNF conversion using package CNF
p cnf 333 1322
-2 3 211 0
-2 -3 -211 0
2 -3 211 0
2 3 -211 0
-3 4 157 0
-3 -4 -157 0
3 -4 157 0
3 4 -157 0
-4 -5 -130 0
-4 5 130 0
4 5 -130 0
4 -5 130 0
-5 -6 -102 0
-5 6 102 0
5 6 -102 0
5 -6 102 0
-6 7 75 0
-6 -7 -75 0
6 -7 75 0
6 7 -75 0
-7 8 74 0
-7 -8 -74 0
7 -8 74 0
7 8 -74 0
-8 9 48 0
-8 -9 -48 0
8 -9 48 0
8 9 -48 0
-9 10 36 0
-9 -10 -36 0
9 -10 36 0
9 10 -36 0
-10 11 21 0
-10 -11 -21 0
10 -11 21 0
10 11 -21 0
-11 12 16 0
-11 -12 -16 0
11 -12 16 0
11 12 -16 0
-12 13 0
12 -13 0
13 -14 15 0
-13 14 0
-13 -15 0
14 -318 -329 0
-14 318 0
-14 329 0
15 -318 -320 -322 -329 0
-15 329 0
-15 318 0
-15 322 0
-15 320 0
-16 -17 -20 0
-16 17 20 0
16 17 -20 0
16 -17 20 0
-17 -18 -19 0
-17 18 19 0
17 18 -19 0
17 -18 19 0
18 -322 -323 0
-18 322 0
-18 323 0
19 -327 -330 0
-19 327 0
-19 330 0
20 -324 -331 0
-20 324 0
-20 331 0
-21 22 25 0
-21 25 31 0
-21 22 31 0
21 -22 -31 0
21 -25 -31 0
21 -22 -25 0
-22 -23 -24 0
-22 23 24 0
22 23 -24 0
22 -23 24 0
23 -318 -320 0
-23 318 0
-23 320 0
24 -322 -329 0
-24 322 0
-24 329 0
-25 26 27 0
-25 26 28 0
25 -26 0
25 -27 -28 0
26 -318 -320 -322 -328 0
-26 328 0
-26 318 0
-26 322 0
-26 320 0
27 -329 -330 0
-27 329 0
-27 330 0
-28 -29 -30 0
-28 29 30 0
28 29 -30 0
28 -29 30 0
29 -318 -328 0
-29 318 0
-29 328 0
30 -320 -322 0
-30 320 0
-30 322 0
-31 -32 -35 0
-31 32 35 0
31 32 -35 0
31 -32 35 0
-32 -33 -34 0
-32 33 34 0
32 33 -34 0
32 -33 34 0
33 -323 -330 0
-33 323 0
-33 330 0
34 -327 -331 0
-34 327 0
-34 331 0
35 -324 -332 0
-35 324 0
-35 332 0
-36 37 44 0
-36 -37 -44 0
36 -37 44 0
36 37 -44 0
-37 38 39 0
-37 -38 -39 0
37 -38 39 0
37 38 -39 0
-38 33 35 0
-38 34 35 0
-38 33 34 0
38 -33 -34 0
38 -34 -35 0
38 -33 -35 0
-39 -40 -43 0
-39 40 43 0
39 40 -43 0
39 -40 43 0
-40 -41 -42 0
-40 41 42 0
40 41 -42 0
40 -41 42 0
41 -326 -332 0
-41 326 0
-41 332 0
42 -317 -325 0
-42 317 0
-42 325 0
43 -315 -319 0
-43 315 0
-43 319 0
-44 45 47 0
-44 46 47 0
-44 45 46 0
44 -45 -46 0
44 -46 -47 0
44 -45 -47 0
45 -325 -326 0
-45 325 0
-45 326 0
46 -315 -317 0
-46 315 0
-46 317 0
47 -319 -321 0
-47 319 0
-47 321 0
-48 49 51 0
-48 51 65 0
-48 49 65 0
48 -49 -65 0
48 -51 -65 0
48 -49 -51 0
-49 31 50 0
-49 -31 -50 0
49 -31 50 0
49 31 -50 0
-50 22 25 0
-50 -22 -25 0
50 -22 25 0
50 22 -25 0
-51 53 59 0
-51 52 64 0
-51 52 59 0
-51 53 64 0
51 -59 -64 0
51 -52 -53 0
-52 27 28 0
-52 -27 -28 0
52 -27 28 0
52 27 -28 0
-53 54 55 0
-53 54 56 0
53 -54 0
53 -55 -56 0
54 -320 -322 -328 -330 0
-54 330 0
-54 320 0
-54 328 0
-54 322 0
55 -329 -331 0
-55 329 0
-55 331 0
-56 -57 -58 0
-56 57 58 0
56 57 -58 0
56 -57 58 0
57 -322 -328 0
-57 322 0
-57 328 0
58 -320 -330 0
-58 320 0
-58 330 0
-59 -60 -63 0
-59 60 63 0
59 60 -63 0
59 -60 63 0
-60 -61 -62 0
-60 61 62 0
60 61 -62 0
60 -61 62 0
61 -323 -331 0
-61 323 0
-61 331 0
62 -327 -332 0
-62 327 0
-62 332 0
63 -324 -325 0
-63 324 0
-63 325 0
-64 52 53 0
-64 -52 -53 0
64 -52 53 0
64 52 -53 0
-65 66 70 0
-65 -66 -70 0
65 -66 70 0
65 66 -70 0
-66 67 68 0
-66 -67 -68 0
66 -67 68 0
66 67 -68 0
-67 61 63 0
-67 62 63 0
-67 61 62 0
67 -61 -62 0
67 -62 -63 0
67 -61 -63 0
-68 47 69 0
-68 -47 -69 0
68 -47 69 0
68 47 -69 0
-69 -45 -46 0
-69 45 46 0
69 45 -46 0
69 -45 46 0
-70 71 73 0
-70 72 73 0
-70 71 72 0
70 -71 -72 0
70 -72 -73 0
70 -71 -73 0
71 -315 -326 0
-71 315 0
-71 326 0
72 -317 -321 0
-72 317 0
-72 321 0
73 -316 -319 0
-73 316 0
-73 319 0
-74 67 68 0
-74 68 70 0
-74 67 70 0
74 -67 -70 0
74 -68 -70 0
74 -67 -68 0
-75 76 78 0
-75 78 101 0
-75 76 101 0
75 -76 -101 0
75 -78 -101 0
75 -76 -78 0
-76 65 77 0
-76 -65 -77 0
76 -65 77 0
76 65 -77 0
-77 49 51 0
-77 -49 -51 0
77 -49 51 0
77 49 -51 0
-78 79 80 0
-78 80 93 0
-78 79 93 0
78 -79 -93 0
78 -80 -93 0
78 -79 -80 0
-79 59 64 0
-79 -59 -64 0
79 -59 64 0
79 59 -64 0
-80 81 82 0
-80 82 88 0
-80 81 88 0
80 -81 -88 0
80 -82 -88 0
80 -81 -82 0
-81 55 56 0
-81 -55 -56 0
81 -55 56 0
81 55 -56 0
-82 83 84 0
-82 83 85 0
82 -83 0
82 -84 -85 0
83 -320 -328 -330 -331 0
-83 331 0
-83 320 0
-83 330 0
-83 328 0
84 -329 -332 0
-84 329 0
-84 332 0
-85 -86 -87 0
-85 86 87 0
85 86 -87 0
85 -86 87 0
86 -328 -330 0
-86 328 0
-86 330 0
87 -320 -331 0
-87 320 0
-87 331 0
-88 -89 -92 0
-88 89 92 0
88 89 -92 0
88 -89 92 0
-89 -90 -91 0
-89 90 91 0
89 90 -91 0
89 -90 91 0
90 -323 -332 0
-90 323 0
-90 332 0
91 -325 -327 0
-91 325 0
-91 327 0
92 -315 -324 0
-92 315 0
-92 324 0
-93 -94 -98 0
-93 94 98 0
93 94 -98 0
93 -94 98 0
-94 95 96 0
-94 -95 -96 0
94 -95 96 0
94 95 -96 0
-95 90 92 0
-95 91 92 0
-95 90 91 0
95 -90 -91 0
95 -91 -92 0
95 -90 -92 0
-96 73 97 0
-96 -73 -97 0
96 -73 97 0
96 73 -97 0
-97 -71 -72 0
-97 71 72 0
97 71 -72 0
97 -71 72 0
98 -99 -100 0
-98 99 0
-98 100 0
99 -321 -326 0
-99 321 0
-99 326 0
100 -316 -317 0
-100 316 0
-100 317 0
-101 95 96 0
-101 96 98 0
-101 95 98 0
101 -96 -98 0
101 -95 -96 0
101 -95 -98 0
102 -103 -105 0
-102 103 0
-102 105 0
-103 101 104 0
-103 -101 -104 0
103 -101 104 0
103 101 -104 0
-104 76 78 0
-104 -76 -78 0
104 -76 78 0
104 76 -78 0
-105 106 108 0
-105 108 129 0
-105 106 129 0
105 -108 -129 0
105 -106 -108 0
105 -106 -129 0
-106 93 107 0
-106 -93 -107 0
106 -93 107 0
106 93 -107 0
-107 79 80 0
-107 -79 -80 0
107 -79 80 0
107 79 -80 0
-108 109 111 0
-108 111 125 0
-108 109 125 0
108 -109 -125 0
108 -111 -125 0
108 -109 -111 0
-109 88 110 0
-109 -88 -110 0
109 -88 110 0
109 88 -110 0
-110 81 82 0
-110 -81 -82 0
110 -81 82 0
110 81 -82 0
-111 113 119 0
-111 112 124 0
-111 112 119 0
-111 113 124 0
111 -119 -124 0
111 -112 -113 0
-112 84 85 0
-112 -84 -85 0
112 -84 85 0
112 84 -85 0
-113 114 115 0
-113 114 116 0
113 -114 0
113 -115 -116 0
114 -320 -328 -331 -332 0
-114 332 0
-114 320 0
-114 331 0
-114 328 0
115 -325 -329 0
-115 325 0
-115 329 0
-116 -117 -118 0
-116 117 118 0
116 117 -118 0
116 -117 118 0
117 -328 -331 0
-117 328 0
-117 331 0
118 -320 -332 0
-118 320 0
-118 332 0
-119 -120 -123 0
-119 120 123 0
119 120 -123 0
119 -120 123 0
-120 -121 -122 0
-120 121 122 0
120 121 -122 0
120 -121 122 0
121 -323 -325 0
-121 323 0
-121 325 0
122 -315 -327 0
-122 315 0
-122 327 0
123 -321 -324 0
-123 321 0
-123 324 0
-124 112 113 0
-124 -112 -113 0
124 -112 113 0
124 112 -113 0
-125 126 127 0
-125 -126 -127 0
125 -126 127 0
125 126 -127 0
-126 -99 -100 0
-126 99 100 0
126 99 -100 0
126 -99 100 0
-127 120 128 0
-127 123 128 0
127 -128 0
127 -120 -123 0
128 -121 -122 0
-128 121 0
-128 122 0
129 -126 -127 0
-129 126 0
-129 127 0
130 -131 -132 0
-130 131 0
-130 132 0
-131 103 105 0
-131 -103 -105 0
131 -103 105 0
131 103 -105 0
132 -133 -135 0
-132 133 0
-132 135 0
-133 129 134 0
-133 -129 -134 0
133 -129 134 0
133 129 -134 0
-134 106 108 0
-134 -106 -108 0
134 -106 108 0
134 106 -108 0
-135 136 138 0
-135 138 156 0
-135 136 156 0
135 -138 -156 0
135 -136 -138 0
135 -136 -156 0
-136 125 137 0
-136 -125 -137 0
136 -125 137 0
136 125 -137 0
-137 109 111 0
-137 -109 -111 0
137 -109 111 0
137 109 -111 0
-138 139 140 0
-138 140 153 0
-138 139 153 0
138 -139 -153 0
138 -140 -153 0
138 -139 -140 0
-139 119 124 0
-139 -119 -124 0
139 -119 124 0
139 119 -124 0
-140 141 142 0
-140 142 148 0
-140 141 148 0
140 -141 -148 0
140 -142 -148 0
140 -141 -142 0
-141 115 116 0
-141 -115 -116 0
141 -115 116 0
141 115 -116 0
-142 143 144 0
-142 143 145 0
142 -143 0
142 -144 -145 0
143 -320 -325 -328 -332 0
-143 332 0
-143 320 0
-143 328 0
-143 325 0
144 -315 -329 0
-144 315 0
-144 329 0
-145 -146 -147 0
-145 146 147 0
145 146 -147 0
145 -146 147 0
146 -328 -332 0
-146 328 0
-146 332 0
147 -320 -325 0
-147 320 0
-147 325 0
-148 -149 -152 0
-148 149 152 0
148 149 -152 0
148 -149 152 0
-149 -150 -151 0
-149 150 151 0
149 150 -151 0
149 -150 151 0
150 -315 -323 0
-150 315 0
-150 323 0
151 -321 -327 0
-151 321 0
-151 327 0
152 -316 -324 0
-152 316 0
-152 324 0
-153 154 155 0
-153 -154 -155 0
153 -154 155 0
153 154 -155 0
154 -316 -326 0
-154 316 0
-154 326 0
-155 150 152 0
-155 151 152 0
-155 150 151 0
155 -150 -151 0
155 -151 -152 0
155 -150 -152 0
156 -154 -155 0
-156 154 0
-156 155 0
-157 158 159 201 0
-157 158 182 201 0
-157 159 182 201 0
157 -158 -159 0
157 -159 -182 0
157 -201 0
157 -158 -182 0
-158 -131 -132 0
-158 131 132 0
158 131 -132 0
158 -131 132 0
159 -160 -161 0
-159 160 0
-159 161 0
-160 133 135 0
-160 -133 -135 0
160 -133 135 0
160 133 -135 0
161 -162 -164 0
-161 162 0
-161 164 0
-162 156 163 0
-162 -156 -163 0
162 -156 163 0
162 156 -163 0
-163 136 138 0
-163 -136 -138 0
163 -136 138 0
163 136 -138 0
164 -165 -167 0
-164 165 0
-164 167 0
-165 153 166 0
-165 -153 -166 0
165 -153 166 0
165 153 -166 0
-166 139 140 0
-166 -139 -140 0
166 -139 140 0
166 139 -140 0
-167 168 170 0
-167 170 181 0
-167 168 181 0
167 -170 -181 0
167 -168 -170 0
167 -168 -181 0
-168 148 169 0
-168 -148 -169 0
168 -148 169 0
168 148 -169 0
-169 141 142 0
-169 -141 -142 0
169 -141 142 0
169 141 -142 0
-170 171 172 0
-170 172 178 0
-170 171 178 0
170 -171 -178 0
170 -172 -178 0
170 -171 -172 0
-171 144 145 0
-171 -144 -145 0
171 -144 145 0
171 144 -145 0
-172 173 174 0
-172 173 175 0
172 -173 0
172 -174 -175 0
173 -315 -320 -325 -328 0
-173 328 0
-173 315 0
-173 325 0
-173 320 0
174 -321 -329 0
-174 321 0
-174 329 0
-175 -176 -177 0
-175 176 177 0
175 176 -177 0
175 -176 177 0
176 -325 -328 0
-176 325 0
-176 328 0
177 -315 -320 0
-177 315 0
-177 320 0
-178 -179 -180 0
-178 179 180 0
178 179 -180 0
178 -179 180 0
179 -321 -323 0
-179 321 0
-179 323 0
180 -316 -327 0
-180 316 0
-180 327 0
181 -179 -180 0
-181 179 0
-181 180 0
182 -183 -184 0
-182 183 0
-182 184 0
-183 -160 -161 0
-183 160 161 0
183 160 -161 0
183 -160 161 0
184 -185 -186 0
-184 185 0
-184 186 0
-185 -162 -164 0
-185 162 164 0
185 162 -164 0
185 -162 164 0
186 -187 -188 0
-186 187 0
-186 188 0
-187 165 167 0
-187 -165 -167 0
187 -165 167 0
187 165 -167 0
188 -189 -191 0
-188 189 0
-188 191 0
-189 181 190 0
-189 -181 -190 0
189 -181 190 0
189 181 -190 0
-190 168 170 0
-190 -168 -170 0
190 -168 170 0
190 168 -170 0
191 -192 -194 0
-191 192 0
-191 194 0
-192 178 193 0
-192 -178 -193 0
192 -178 193 0
192 178 -193 0
-193 171 172 0
-193 -171 -172 0
193 -171 172 0
193 171 -172 0
-194 195 196 0
-194 196 200 0
-194 195 200 0
194 -196 -200 0
194 -195 -196 0
194 -195 -200 0
-195 174 175 0
-195 -174 -175 0
195 -174 175 0
195 174 -175 0
-196 197 199 0
-196 198 199 0
-196 197 198 0
196 -197 -198 0
196 -198 -199 0
196 -197 -199 0
197 -315 -328 0
-197 315 0
-197 328 0
198 -320 -321 0
-198 320 0
-198 321 0
199 -316 -329 0
-199 316 0
-199 329 0
200 -316 -323 0
-200 316 0
-200 323 0
201 -202 -183 184 -203 0
201 -202 183 -184 -203 0
-201 203 0
-201 183 184 0
-201 202 0
-201 -183 -184 0
-202 -158 -159 0
-202 158 159 0
202 158 -159 0
202 -158 159 0
203 -185 186 -204 -205 0
203 185 -186 -204 -205 0
-203 204 0
-203 -185 -186 0
-203 205 0
-203 185 186 0
-204 -187 -188 0
-204 187 188 0
204 187 -188 0
204 -187 188 0
205 -189 192 -194 -206 0
205 -189 -192 194 -206 0
-205 206 0
-205 192 194 0
-205 189 0
-205 -192 -194 0
206 200 -207 -208 -210 0
206 -200 207 -208 -210 0
-206 208 0
-206 200 207 0
-206 210 0
-206 -200 -207 0
-207 195 196 0
-207 -195 -196 0
207 -195 196 0
207 195 -196 0
-208 199 209 0
-208 -199 -209 0
208 -199 209 0
208 199 -209 0
-209 -197 -198 0
-209 197 198 0
209 197 -198 0
209 -197 198 0
210 -316 -320 -321 -328 0
-210 328 0
-210 316 0
-210 321 0
-210 320 0
-211 212 256 0
-211 -212 -256 0
211 -212 256 0
211 212 -256 0
-212 213 239 0
-212 -213 -239 0
212 -213 239 0
212 213 -239 0
-213 214 221 0
-213 221 228 0
-213 214 228 0
213 -214 -228 0
213 -221 -228 0
213 -214 -221 0
-214 215 219 0
-214 -215 -219 0
214 -215 219 0
214 215 -219 0
-215 216 217 0
-215 -216 -217 0
215 -216 217 0
215 216 -217 0
-216 332 71 0
-216 327 61 0
-216 61 71 0
-216 332 61 0
-216 327 71 0
216 -61 -71 0
216 -327 -332 -71 0
216 -327 -332 -61 0
-217 45 218 0
-217 -45 -218 0
217 -45 218 0
217 45 -218 0
-218 -34 -46 0
-218 34 46 0
218 34 -46 0
218 -34 46 0
-219 33 220 0
-219 -33 -220 0
219 -33 220 0
219 33 -220 0
-220 -35 -47 0
-220 35 47 0
220 35 -47 0
220 -35 47 0
-221 222 224 0
-221 224 226 0
-221 222 226 0
221 -222 -226 0
221 -224 -226 0
221 -222 -224 0
-222 61 223 0
-222 -61 -223 0
222 -61 223 0
222 61 -223 0
-223 -62 -71 0
-223 62 71 0
223 62 -71 0
223 -62 71 0
-224 28 225 0
-224 -28 -225 0
224 -28 225 0
224 28 -225 0
-225 -54 -63 0
-225 54 63 0
225 54 -63 0
225 -54 63 0
-226 56 227 0
-226 56 83 0
-226 83 227 0
226 -83 -227 0
226 -56 -227 0
226 -56 -83 0
-227 84 154 0
-227 123 154 0
-227 84 123 0
227 -84 -123 0
227 -123 -154 0
227 -84 -154 0
-228 229 234 0
-228 -229 -234 0
228 -229 234 0
228 229 -234 0
-229 230 231 0
-229 -230 -231 0
229 -230 231 0
229 230 -231 0
-230 54 63 0
-230 28 54 0
-230 28 63 0
230 -28 -54 0
230 -54 -63 0
230 -28 -63 0
-231 232 233 0
-231 -232 -233 0
231 -232 233 0
231 232 -233 0
-232 -22 -26 0
-232 22 26 0
232 22 -26 0
232 -22 26 0
-233 27 73 0
-233 72 73 0
-233 27 72 0
233 -27 -72 0
233 -72 -73 0
233 -27 -73 0
-234 235 236 0
-234 236 237 0
-234 235 237 0
234 -235 -237 0
234 -236 -237 0
234 -235 -236 0
-235 326 100 0
-235 321 55 0
-235 55 100 0
-235 326 55 0
-235 321 100 0
235 -55 -100 0
235 -321 -326 -100 0
235 -321 -326 -55 0
-236 90 92 0
-236 91 92 0
-236 90 91 0
236 -90 -91 0
236 -91 -92 0
236 -90 -92 0
-237 72 238 0
-237 -72 -238 0
237 -72 238 0
237 72 -238 0
-238 -27 -73 0
-238 27 73 0
238 27 -73 0
238 -27 73 0
-239 240 249 0
-239 -240 -249 0
239 -240 249 0
239 240 -249 0
-240 241 248 0
-240 -241 -248 0
240 -241 248 0
240 241 -248 0
-241 242 246 0
-241 -242 -246 0
241 -242 246 0
241 242 -246 0
-242 243 244 0
-242 -243 -244 0
242 -243 244 0
242 243 -244 0
-243 34 46 0
-243 45 46 0
-243 34 45 0
243 -34 -45 0
243 -45 -46 0
243 -34 -46 0
-244 41 245 0
-244 -41 -245 0
244 -41 245 0
244 41 -245 0
-245 -19 -42 0
-245 19 42 0
245 19 -42 0
245 -19 42 0
-246 18 247 0
-246 -18 -247 0
246 -18 247 0
246 18 -247 0
-247 -14 -43 0
-247 14 43 0
247 14 -43 0
247 -14 43 0
-248 230 231 0
-248 231 234 0
-248 230 234 0
248 -230 -234 0
248 -231 -234 0
248 -230 -231 0
-249 250 255 0
-249 -250 -255 0
249 -250 255 0
249 250 -255 0
-250 251 252 0
-250 -251 -252 0
250 -251 252 0
250 251 -252 0
-251 22 233 0
-251 22 26 0
-251 26 233 0
251 -26 -233 0
251 -22 -233 0
251 -22 -26 0
-252 253 254 0
-252 -253 -254 0
252 -253 254 0
252 253 -254 0
-253 -15 -20 0
-253 15 20 0
253 15 -20 0
253 -15 20 0
-254 33 47 0
-254 35 47 0
-254 33 35 0
254 -33 -35 0
254 -35 -47 0
254 -33 -47 0
-255 216 217 0
-255 217 219 0
-255 216 219 0
255 -216 -219 0
255 -217 -219 0
255 -216 -217 0
-256 257 268 0
-256 268 270 0
-256 257 270 0
256 -257 -270 0
256 -268 -270 0
256 -257 -268 0
-257 258 260 0
-257 260 266 0
-257 258 266 0
257 -258 -266 0
257 -260 -266 0
257 -258 -260 0
-258 237 259 0
-258 -237 -259 0
258 -237 259 0
258 237 -259 0
-259 235 236 0
-259 -235 -236 0
259 -235 236 0
259 235 -236 0
-260 261 263 0
-260 263 265 0
-260 261 265 0
260 -261 -265 0
260 -263 -265 0
260 -261 -263 0
-261 91 262 0
-261 -91 -262 0
261 -91 262 0
261 91 -262 0
-262 -90 -92 0
-262 90 92 0
262 90 -92 0
262 -90 92 0
-263 99 264 0
-263 -99 -264 0
263 -99 264 0
263 99 -264 0
-264 -55 -100 0
-264 55 100 0
264 55 -100 0
264 -55 100 0
-265 114 122 0
-265 121 122 0
-265 114 121 0
265 -114 -121 0
265 -121 -122 0
265 -114 -122 0
-266 226 267 0
-266 -226 -267 0
266 -226 267 0
266 226 -267 0
-267 222 224 0
-267 -222 -224 0
267 -222 224 0
267 222 -224 0
-268 228 269 0
-268 -228 -269 0
268 -228 269 0
268 228 -269 0
-269 214 221 0
-269 -214 -221 0
269 -214 221 0
269 214 -221 0
-270 271 280 0
-270 280 282 0
-270 271 282 0
270 -271 -282 0
270 -280 -282 0
270 -271 -280 0
-271 272 274 0
-271 274 278 0
-271 272 278 0
271 -272 -278 0
271 -274 -278 0
271 -272 -274 0
-272 227 273 0
-272 -227 -273 0
272 -227 273 0
272 227 -273 0
-273 -56 -83 0
-273 56 83 0
273 56 -83 0
273 -56 83 0
-274 85 275 0
-274 275 276 0
-274 85 276 0
274 -85 -276 0
274 -275 -276 0
274 -85 -275 0
-275 115 152 0
-275 150 152 0
-275 115 150 0
275 -115 -150 0
275 -150 -152 0
275 -115 -152 0
-276 123 277 0
-276 -123 -277 0
276 -123 277 0
276 123 -277 0
-277 -84 -154 0
-277 84 154 0
277 84 -154 0
277 -84 154 0
-278 265 279 0
-278 -265 -279 0
278 -265 279 0
278 265 -279 0
-279 261 263 0
-279 -261 -263 0
279 -261 263 0
279 261 -263 0
-280 266 281 0
-280 -266 -281 0
280 -266 281 0
280 266 -281 0
-281 258 260 0
-281 -258 -260 0
281 -258 260 0
281 258 -260 0
-282 283 288 0
-282 288 290 0
-282 283 290 0
282 -283 -290 0
282 -288 -290 0
282 -283 -288 0
-283 284 285 0
-283 285 286 0
-283 284 286 0
283 -284 -286 0
283 -285 -286 0
283 -284 -285 0
-284 114 120 0
-284 -114 -120 0
284 -114 120 0
284 114 -120 0
-285 143 151 0
-285 116 143 0
-285 116 151 0
285 -116 -143 0
285 -143 -151 0
285 -116 -151 0
-286 276 287 0
-286 -276 -287 0
286 -276 287 0
286 276 -287 0
-287 85 275 0
-287 -85 -275 0
287 -85 275 0
287 85 -275 0
-288 278 289 0
-288 -278 -289 0
288 -278 289 0
288 278 -289 0
-289 272 274 0
-289 -272 -274 0
289 -272 274 0
289 272 -274 0
-290 291 297 0
-290 297 299 0
-290 291 299 0
290 -291 -299 0
290 -297 -299 0
290 -291 -297 0
-291 292 293 0
-291 293 295 0
-291 292 295 0
291 -292 -295 0
291 -293 -295 0
291 -292 -293 0
-292 323 180 0
-292 321 144 0
-292 144 180 0
-292 323 144 0
-292 321 180 0
292 -144 -180 0
292 -321 -323 -180 0
292 -321 -323 -144 0
-293 150 294 0
-293 -150 -294 0
293 -150 294 0
293 150 -294 0
-294 -115 -152 0
-294 115 152 0
294 115 -152 0
294 -115 152 0
-295 116 296 0
-295 -116 -296 0
295 -116 296 0
295 116 -296 0
-296 -143 -151 0
-296 143 151 0
296 143 -151 0
296 -143 151 0
-297 286 298 0
-297 -286 -298 0
297 -286 298 0
297 286 -298 0
-298 284 285 0
-298 -284 -285 0
298 -284 285 0
298 284 -285 0
-299 300 303 0
-299 303 305 0
-299 300 305 0
299 -300 -305 0
299 -303 -305 0
299 -300 -303 0
-300 145 301 0
-300 145 173 0
-300 173 301 0
300 -173 -301 0
300 -145 -301 0
300 -145 -173 0
-301 179 302 0
-301 -179 -302 0
301 -179 302 0
301 179 -302 0
-302 -144 -180 0
-302 144 180 0
302 144 -180 0
302 -144 180 0
-303 295 304 0
-303 -295 -304 0
303 -295 304 0
303 295 -304 0
-304 292 293 0
-304 -292 -293 0
304 -292 293 0
304 292 -293 0
-305 306 308 0
-305 308 310 0
-305 306 310 0
305 -306 -310 0
305 -308 -310 0
305 -306 -308 0
-306 329 307 0
-306 321 200 0
-306 200 307 0
-306 329 200 0
-306 321 307 0
306 -200 -307 0
306 -321 -329 -307 0
306 -321 -329 -200 0
307 -198 -199 0
-307 198 0
-307 199 0
-308 301 309 0
-308 -301 -309 0
308 -301 309 0
308 301 -309 0
-309 -145 -173 0
-309 145 173 0
309 145 -173 0
309 -145 173 0
-310 175 311 0
-310 311 313 0
-310 175 313 0
310 -175 -313 0
310 -311 -313 0
310 -175 -311 0
-311 307 312 0
-311 -307 -312 0
311 -307 312 0
311 307 -312 0
-312 -174 -200 0
-312 174 200 0
312 174 -200 0
312 -174 200 0
-313 210 314 0
-313 197 210 0
-313 197 314 0
313 -197 -210 0
313 -210 -314 0
313 -197 -314 0
-314 -198 -199 0
-314 198 199 0
314 198 -199 0
314 -198 199 0
-333 0
2 0

